WARNING: for repeatability, setting FPU to use double precision
============================[ Problem Statistics ]=============================
|                                                                             |
|  Number of variables:        126976                                         |
|  Number of clauses:          296239                                         |
|  Parse time:                   0.08 s                                       |
|                                                                             |
c ============================[ Search Statistics ]==============================
c | Conflicts |          ORIGINAL         |          LEARNT          | Progress |
c |           |    Vars  Clauses Literals |    Limit  Clauses Lit/Cl |          |
c ===============================================================================
c Switched to VSIDS.
c Switched to LRB.
c Switched to VSIDS.
c Switched to LRB.
c Switched to VSIDS.
c Switched to LRB.
c Switched to VSIDS.
c Switched to LRB.
c Switched to VSIDS.
c Switched to LRB.
c Switched to VSIDS.
c Switched to LRB.
c Switched to VSIDS.
c Switched to LRB.
c Switched to VSIDS.
c Switched to LRB.
c Switched to VSIDS.
c ===============================================================================
restarts                  : 7644
conflicts                 : 1828363        (1175 /sec)
decisions                 : 35835670       (0.00 % random) (23031 /sec)
propagations              : 3504707569     (2252393 /sec)
conflict literals         : 196118687      (37.59 % deleted)

conflicts w/ DIP found    : 1207684        (66.05 % of conflicts)
conflicts w/ dangerous DIP: 0              (0.00 % of conflicts)
conflicts w/ DIP-learning : 264            (0.01 % of conflicts)
decisions on ext vars     : 1310           (0.00 % of decisions)
total ext vars            : 84          
tried delete ext vars     : 3           
deleted ext vars          : 3           
max ext vars              : 81          

Memory used               : 342.00 MB
CPU time                  : 1555.99 s
DIP computation time      : 132.6 s (8.52 % of total time)
ER_sel time               : 3.01625 s
ER_add time               : 0.001534 s
ER_delC time              : 0 s
ER_delV time              : 0.001362 s
ER_sub time               : 3.7296 s
ER_stat time              : 0 s

UNSATISFIABLE
